!INCAR GENERATED BY GDIS 1.00.0 (C) 2021
SYSTEM=quartz
PREC=NORMAL
!USING PREC SETTINGS FOR ENCUT and ENAUG
ALGO=NORMAL
LREAL=.FALSE.
GGA=PE
