quartz ! GENERATED BY GDIS 1.00.0 (C) 2021
0
Reciprocal
