quartz ! GENERATED BY GDIS 1.00.0 (C) 2021
1.000000
     4.82710000     0.00000000     0.00000000
    -2.41350000     4.18040000     0.00000000
    -0.00000000    -0.00000000     5.33720000
Si O
  3 6
Selective dynamics
Direct
    0.46354000    0.00000000    0.33333333  T   T   T
    0.00000000    0.46354000    0.66666667  T   T   T
    0.53646000    0.53646000    0.00000000  T   T   T
    0.40801200    0.27891800    0.22510800  T   T   T
    0.72108200    0.12909400    0.55844133  T   T   T
    0.87090600    0.59198800    0.89177467  T   T   T
    0.12909400    0.72108200    0.44155867  T   T   T
    0.59198800    0.87090600    0.10822533  T   T   T
    0.27891800    0.40801200    0.77489200  T   T   T
